/*********************************************
 * OPL 12.6.0.0 Data
 * Author: Adrian Rodriguez Bazaga, Pau Rodriguez Esmerats
 * Creation Date: 06/12/2017 at 23:03:09
 *********************************************/

nNurses=277;
maxConsec=2;
maxPresence=7;
maxHours=5;
minHours=1;
hours=24;
demand= [48 47 74 71 47 74 71 48 49 24 4 4 6 4 9 3 8 3 5 0 34 75 44 57  ];
